(set-logic QF_BV)
(set-info :source |Converted by Dunbo Cai. dunbocai@gmail.com|)
(set-info :smt-lib-version 2.0)
(set-info :category "convex body with variables with domain [-15, 15]")
(declare-fun x_0 () (_ BitVec 32))
(declare-fun x_1 () (_ BitVec 32))
(declare-fun x_2 () (_ BitVec 32))
(declare-fun x_3 () (_ BitVec 32))
(declare-fun x_4 () (_ BitVec 32))
(declare-fun x_5 () (_ BitVec 32))
(declare-fun x_6 () (_ BitVec 32))
(assert (bvsge x_0 (bvsub (_ bv0 32) (_ bv15 32))) )
(assert (bvsle x_0 (_ bv15 32)) )
(assert (bvsge x_1 (bvsub (_ bv0 32) (_ bv15 32))) )
(assert (bvsle x_1 (_ bv15 32)) )
(assert (bvsge x_2 (bvsub (_ bv0 32) (_ bv15 32))) )
(assert (bvsle x_2 (_ bv15 32)) )
(assert (bvsge x_3 (bvsub (_ bv0 32) (_ bv15 32))) )
(assert (bvsle x_3 (_ bv15 32)) )
(assert (bvsge x_4 (bvsub (_ bv0 32) (_ bv15 32))) )
(assert (bvsle x_4 (_ bv15 32)) )
(assert (bvsge x_5 (bvsub (_ bv0 32) (_ bv15 32))) )
(assert (bvsle x_5 (_ bv15 32)) )
(assert (bvsge x_6 (bvsub (_ bv0 32) (_ bv15 32))) )
(assert (bvsle x_6 (_ bv15 32)) )
(assert (bvsle (bvadd (bvmul (bvsub (_ bv0 32) (bvsdiv (_ bv16 32) (_ bv1 32) )) x_1 )(bvmul (bvsub (_ bv0 32) (bvsdiv (_ bv27 32) (_ bv1 32) )) x_3 )(bvmul (bvsub (_ bv0 32) (bvsdiv (_ bv120 32) (_ bv1 32) )) x_4 )(bvmul (bvsdiv (_ bv144 32) (_ bv1 32) ) x_5 )(bvmul (bvsub (_ bv0 32) (bvsdiv (_ bv24 32) (_ bv1 32) )) x_6 )) (bvmul (bvsub (_ bv0 32) (bvsdiv (_ bv2125 32) (_ bv1 32) )) (_ bv1 32) ) )) 
(assert (bvsle (bvadd (bvmul (bvsub (_ bv0 32) (bvsdiv (_ bv42 32) (_ bv1 32) )) x_0 )(bvmul (bvsdiv (_ bv70 32) (_ bv1 32) ) x_1 )(bvmul (bvsdiv (_ bv49 32) (_ bv1 32) ) x_2 )(bvmul (bvsdiv (_ bv168 32) (_ bv1 32) ) x_3 )(bvmul (bvsub (_ bv0 32) (bvsdiv (_ bv64 32) (_ bv1 32) )) x_4 )(bvmul (bvsub (_ bv0 32) (bvsdiv (_ bv168 32) (_ bv1 32) )) x_5 )(bvmul (bvsub (_ bv0 32) (bvsdiv (_ bv84 32) (_ bv1 32) )) x_6 )) (bvmul (bvsdiv (_ bv1281 32) (_ bv1 32) ) (_ bv1 32) ) )) 
(assert (bvsle (bvadd (bvmul (bvsdiv (_ bv108 32) (_ bv1 32) ) x_2 )(bvmul (bvsub (_ bv0 32) (bvsdiv (_ bv189 32) (_ bv1 32) )) x_4 )(bvmul (bvsdiv (_ bv504 32) (_ bv1 32) ) x_5 )(bvmul (bvsub (_ bv0 32) (bvsdiv (_ bv196 32) (_ bv1 32) )) x_6 )) (bvmul (bvsub (_ bv0 32) (bvsdiv (_ bv4907 32) (_ bv1 32) )) (_ bv1 32) ) )) 
(assert (bvsle (bvadd (bvmul (bvsub (_ bv0 32) (bvsdiv (_ bv30 32) (_ bv1 32) )) x_0 )(bvmul (bvsdiv (_ bv36 32) (_ bv1 32) ) x_1 )(bvmul (bvsub (_ bv0 32) (bvsdiv (_ bv81 32) (_ bv1 32) )) x_2 )(bvmul (bvsdiv (_ bv28 32) (_ bv1 32) ) x_4 )(bvmul (bvsub (_ bv0 32) (bvsdiv (_ bv8 32) (_ bv1 32) )) x_5 )) (bvmul (bvsdiv (_ bv269 32) (_ bv1 32) ) (_ bv1 32) ) )) 
(assert (bvsle (bvadd (bvmul (bvsdiv (_ bv1440 32) (_ bv1 32) ) x_0 )(bvmul (bvsdiv (_ bv180 32) (_ bv1 32) ) x_1 )(bvmul (bvsdiv (_ bv135 32) (_ bv1 32) ) x_3 )(bvmul (bvsdiv (_ bv432 32) (_ bv1 32) ) x_5 )(bvmul (bvsdiv (_ bv280 32) (_ bv1 32) ) x_6 )) (bvmul (bvsdiv (_ bv629 32) (_ bv1 32) ) (_ bv1 32) ) )) 
(assert (bvsle (bvadd (bvmul (bvsdiv (_ bv28 32) (_ bv1 32) ) x_0 )(bvmul (bvsdiv (_ bv9 32) (_ bv1 32) ) x_3 )(bvmul (bvsdiv (_ bv4 32) (_ bv1 32) ) x_4 )(bvmul (bvsdiv (_ bv24 32) (_ bv1 32) ) x_5 )(bvmul (bvsub (_ bv0 32) (bvsdiv (_ bv18 32) (_ bv1 32) )) x_6 )) (bvmul (bvsub (_ bv0 32) (bvsdiv (_ bv5 32) (_ bv1 32) )) (_ bv1 32) ) )) 

(check-sat)
(exit)